76782.2
0 1 2 3 4 5 16 17 26 25 24 23 22 21 20 19 18 143 142 116 115 114 141 140 139 138 137 136 135 134 133 132 131 130 119 118 117 129 128 127 126 125 124 123 122 121 120 10 11 9 8 7 6 12 13 37 36 35 34 33 32 31 15 14 30 29 28 27 42 58 59 60 61 62 63 64 65 66 67 68 69 70 71 38 39 40 41 57 56 55 54 53 52 51 50 49 48 47 46 45 44 43 113 112 88 89 92 91 90 79 78 80 81 82 83 86 87 85 84 111 110 109 108 94 93 95 96 107 106 97 98 101 100 99 73 72 74 75 76 77 105 104 103 102 
